11 965
528 7 482 7 301 7 114 9 881 11 697 15 581 22
525 7 482 7 365 7 115 9 943 13
525 7 482 7 365 7 115 9 943 13
525 7 482 7 365 7 115 9 943 13
525 7 482 7 365 7 115 9 943 13
525 7 476 7 354 7 155 9 5 11 838 15 650 20 567 28
525 7 476 7 354 7 155 9 5 11 838 15 650 20 567 28
525 7 502 7 412 7 255 9 80 11 874 18
525 7 502 7 412 7 255 9 80 11 874 18
525 7 502 7 412 7 255 9 80 11 874 18
525 7 502 7 412 7 255 9 80 11 874 18
